GLPSOL--GLPK LP/MIP Solver 5.0
Parameter(s) specified in the command line:
 --cpxlp --first inputs/new_no_tr/order/jump_3_40_reverse_tiers_input.lp -o
 solutions/new_no_tr/jump_3_40_reverse_tiers_input.lp
Reading problem data from 'inputs/new_no_tr/order/jump_3_40_reverse_tiers_input.lp'...
inputs/new_no_tr/order/jump_3_40_reverse_tiers_input.lp:8478: warning: lower bound of variable 'm_6_6' redefined
inputs/new_no_tr/order/jump_3_40_reverse_tiers_input.lp:8478: warning: upper bound of variable 'm_6_6' redefined
8208 rows, 3241 columns, 25071 non-zeros
3241 integer variables, 2978 of which are binary
11678 lines were read
GLPK Integer Optimizer 5.0
8208 rows, 3241 columns, 25071 non-zeros
3241 integer variables, 2978 of which are binary
Preprocessing...
74 hidden packing inequaliti(es) were detected
481 hidden covering inequaliti(es) were detected
1418 constraint coefficient(s) were reduced
7616 rows, 2868 columns, 22834 non-zeros
2868 integer variables, 2827 of which are binary
Scaling...
 A: min|aij| =  1.000e+00  max|aij| =  1.024e+04  ratio =  1.024e+04
GM: min|aij| =  3.976e-01  max|aij| =  2.515e+00  ratio =  6.325e+00
EQ: min|aij| =  1.581e-01  max|aij| =  1.000e+00  ratio =  6.325e+00
2N: min|aij| =  1.250e-01  max|aij| =  1.625e+00  ratio =  1.300e+01
Constructing initial basis...
Size of triangular part is 6907
Solving LP relaxation...
GLPK Simplex Optimizer 5.0
7616 rows, 2868 columns, 22834 non-zeros
      0: obj =   3.072000000e+04 inf =   1.010e+03 (514)
   2891: obj =   4.891299210e+04 inf =   1.818e-13 (0) 27
*  6675: obj =   3.110147113e+04 inf =   5.555e-14 (0) 37
OPTIMAL LP SOLUTION FOUND
Integer optimization begins...
Long-step dual simplex will be used
+  6675: mip =     not found yet >=              -inf        (1; 0)
+ 14339: mip =     not found yet >=   3.110200000e+04        (11; 0)
+ 23725: mip =     not found yet >=   3.110200000e+04        (15; 1)
+ 31232: mip =     not found yet >=   3.110200000e+04        (18; 2)
+ 38996: mip =     not found yet >=   3.110200000e+04        (20; 3)
+ 46933: mip =     not found yet >=   3.110200000e+04        (23; 3)
+ 57529: mip =     not found yet >=   3.110200000e+04        (22; 5)
+ 64854: mip =     not found yet >=   3.110200000e+04        (29; 6)
+ 73408: mip =     not found yet >=   3.110200000e+04        (34; 6)
+ 81506: mip =     not found yet >=   3.110200000e+04        (39; 7)
+ 88273: mip =     not found yet >=   3.110200000e+04        (42; 8)
Time used: 60.4 secs.  Memory used: 10.0 Mb.
+ 95313: mip =     not found yet >=   3.110200000e+04        (46; 8)
+103382: mip =     not found yet >=   3.110200000e+04        (50; 9)
+111178: mip =     not found yet >=   3.110200000e+04        (53; 9)
+118556: mip =     not found yet >=   3.110200000e+04        (55; 10)
+125240: mip =     not found yet >=   3.110200000e+04        (56; 11)
+132517: mip =     not found yet >=   3.110200000e+04        (57; 11)
+141699: mip =     not found yet >=   3.110200000e+04        (60; 11)
+148317: mip =     not found yet >=   3.110200000e+04        (66; 12)
+156332: mip =     not found yet >=   3.110200000e+04        (73; 13)
+164685: mip =     not found yet >=   3.110200000e+04        (75; 14)
+172815: mip =     not found yet >=   3.110200000e+04        (80; 15)
Time used: 121.3 secs.  Memory used: 10.4 Mb.
+180793: mip =     not found yet >=   3.110200000e+04        (84; 15)
+187774: mip =     not found yet >=   3.110200000e+04        (87; 16)
+195153: mip =     not found yet >=   3.110200000e+04        (89; 17)
+202125: mip =     not found yet >=   3.110200000e+04        (92; 18)
+209578: mip =     not found yet >=   3.110200000e+04        (94; 18)
+217552: mip =     not found yet >=   3.110200000e+04        (99; 19)
+224816: mip =     not found yet >=   3.110200000e+04        (102; 20)
+232375: mip =     not found yet >=   3.110200000e+04        (104; 21)
+241993: mip =     not found yet >=   3.110200000e+04        (106; 21)
+249545: mip =     not found yet >=   3.110200000e+04        (113; 22)
+260257: mip =     not found yet >=   3.110200000e+04        (116; 23)
Time used: 184.7 secs.  Memory used: 10.8 Mb.
+267122: mip =     not found yet >=   3.110200000e+04        (120; 24)
+274930: mip =     not found yet >=   3.110200000e+04        (123; 24)
+282782: mip =     not found yet >=   3.110200000e+04        (125; 25)
+293655: mip =     not found yet >=   3.110200000e+04        (129; 26)
+303663: mip =     not found yet >=   3.110200000e+04        (137; 27)
+311962: mip =     not found yet >=   3.110200000e+04        (146; 28)
+319252: mip =     not found yet >=   3.110200000e+04        (149; 28)
+330316: mip =     not found yet >=   3.110200000e+04        (153; 29)
+336895: mip =     not found yet >=   3.110200000e+04        (155; 30)
Time used: 245.3 secs.  Memory used: 11.2 Mb.
+344963: mip =     not found yet >=   3.110200000e+04        (157; 30)
+351870: mip =     not found yet >=   3.110200000e+04        (158; 31)
+361152: mip =     not found yet >=   3.110200000e+04        (161; 31)
+369290: mip =     not found yet >=   3.110200000e+04        (166; 32)
+377694: mip =     not found yet >=   3.110200000e+04        (171; 33)
+385277: mip =     not found yet >=   3.110200000e+04        (174; 33)
+392759: mip =     not found yet >=   3.110200000e+04        (178; 34)
+400166: mip =     not found yet >=   3.110200000e+04        (181; 35)
+408780: mip =     not found yet >=   3.110200000e+04        (184; 35)
+418678: mip =     not found yet >=   3.110200000e+04        (184; 36)
+426887: mip =     not found yet >=   3.110200000e+04        (186; 36)
Time used: 305.7 secs.  Memory used: 11.5 Mb.
+435005: mip =     not found yet >=   3.110200000e+04        (190; 37)
+443207: mip =     not found yet >=   3.110200000e+04        (194; 38)
+450966: mip =     not found yet >=   3.110200000e+04        (198; 38)
+459219: mip =     not found yet >=   3.110200000e+04        (204; 39)
+467460: mip =     not found yet >=   3.110200000e+04        (210; 41)
+476153: mip =     not found yet >=   3.110200000e+04        (213; 42)
+488577: mip =     not found yet >=   3.110200000e+04        (214; 44)
+496473: mip =     not found yet >=   3.110200000e+04        (214; 45)
+504728: mip =     not found yet >=   3.110200000e+04        (217; 45)
Time used: 365.9 secs.  Memory used: 11.8 Mb.
+513723: mip =     not found yet >=   3.110200000e+04        (220; 46)
+520836: mip =     not found yet >=   3.110200000e+04        (226; 47)
+531077: mip =     not found yet >=   3.110200000e+04        (231; 48)
+540103: mip =     not found yet >=   3.110200000e+04        (235; 49)
+548247: mip =     not found yet >=   3.110200000e+04        (240; 50)
+556567: mip =     not found yet >=   3.110200000e+04        (242; 51)
+564176: mip =     not found yet >=   3.110200000e+04        (245; 51)
+571195: mip =     not found yet >=   3.110200000e+04        (253; 52)
+580905: mip =     not found yet >=   3.110200000e+04        (257; 53)
+591765: mip =     not found yet >=   3.110200000e+04        (261; 54)
Time used: 426.0 secs.  Memory used: 12.2 Mb.
+600225: mip =     not found yet >=   3.110200000e+04        (266; 56)
+609587: mip =     not found yet >=   3.110200000e+04        (269; 57)
+620464: mip =     not found yet >=   3.110200000e+04        (275; 58)
+630050: mip =     not found yet >=   3.110200000e+04        (279; 59)
+637320: mip =     not found yet >=   3.110200000e+04        (283; 60)
+645809: mip =     not found yet >=   3.110200000e+04        (287; 61)
+654358: mip =     not found yet >=   3.110200000e+04        (291; 62)
+665083: mip =     not found yet >=   3.110200000e+04        (294; 63)
+674780: mip =     not found yet >=   3.110200000e+04        (302; 64)
+683402: mip =     not found yet >=   3.110200000e+04        (307; 65)
Time used: 486.6 secs.  Memory used: 12.7 Mb.
+691611: mip =     not found yet >=   3.110200000e+04        (310; 66)
+699184: mip =     not found yet >=   3.110200000e+04        (314; 67)
+709644: mip =     not found yet >=   3.110200000e+04        (320; 68)
+718141: mip =     not found yet >=   3.110200000e+04        (325; 69)
+726211: mip =     not found yet >=   3.110200000e+04        (329; 71)
+734634: mip =     not found yet >=   3.110200000e+04        (332; 72)
+741825: mip =     not found yet >=   3.110200000e+04        (334; 73)
+753272: mip =     not found yet >=   3.110300000e+04        (341; 74)
+761967: mip =     not found yet >=   3.110300000e+04        (347; 75)
+774026: mip =     not found yet >=   3.110300000e+04        (348; 76)
Time used: 550.9 secs.  Memory used: 13.1 Mb.
+782977: mip =     not found yet >=   3.110300000e+04        (350; 76)
+792145: mip =     not found yet >=   3.110300000e+04        (352; 78)
+801509: mip =     not found yet >=   3.110300000e+04        (354; 79)
+811386: mip =     not found yet >=   3.110300000e+04        (357; 80)
+819633: mip =     not found yet >=   3.110300000e+04        (360; 81)
+827828: mip =     not found yet >=   3.110300000e+04        (363; 82)
+837296: mip =     not found yet >=   3.110300000e+04        (366; 83)
+845413: mip =     not found yet >=   3.110400000e+04        (369; 84)
+854547: mip =     not found yet >=   3.110400000e+04        (374; 84)
+864121: mip =     not found yet >=   3.110400000e+04        (375; 85)
Time used: 613.2 secs.  Memory used: 13.4 Mb.
+870845: mip =     not found yet >=   3.110400000e+04        (376; 86)
+881936: mip =     not found yet >=   3.110400000e+04        (377; 87)
+889922: mip =     not found yet >=   3.110400000e+04        (378; 88)
+897322: mip =     not found yet >=   3.110400000e+04        (381; 89)
+904111: mip =     not found yet >=   3.110400000e+04        (382; 90)
+911078: mip =     not found yet >=   3.110400000e+04        (384; 91)
+918000: mip =     not found yet >=   3.110400000e+04        (387; 91)
+927902: mip =     not found yet >=   3.110400000e+04        (390; 92)
+936706: mip =     not found yet >=   3.110400000e+04        (392; 93)
+945307: mip =     not found yet >=   3.110400000e+04        (394; 94)
Time used: 676.9 secs.  Memory used: 13.6 Mb.
+953070: mip =     not found yet >=   3.110400000e+04        (394; 95)
+960228: mip =     not found yet >=   3.110400000e+04        (396; 95)
+968788: mip =     not found yet >=   3.110500000e+04        (397; 97)
+977018: mip =     not found yet >=   3.110500000e+04        (399; 97)
+987046: mip =     not found yet >=   3.110500000e+04        (402; 98)
+995256: mip =     not found yet >=   3.110500000e+04        (402; 98)
+1002393: mip =     not found yet >=   3.110500000e+04        (405; 99)
+1010765: mip =     not found yet >=   3.110500000e+04        (407; 100)
+1019427: mip =     not found yet >=   3.110500000e+04        (408; 102)
+1027464: mip =     not found yet >=   3.110500000e+04        (410; 102)
+1035561: mip =     not found yet >=   3.110500000e+04        (412; 103)
Time used: 738.5 secs.  Memory used: 13.9 Mb.
+1042604: mip =     not found yet >=   3.110500000e+04        (413; 104)
+1051198: mip =     not found yet >=   3.110500000e+04        (415; 106)
+1060071: mip =     not found yet >=   3.110500000e+04        (416; 107)
+1068159: mip =     not found yet >=   3.110500000e+04        (418; 107)
+1076449: mip =     not found yet >=   3.110500000e+04        (420; 108)
+1088408: mip =     not found yet >=   3.110500000e+04        (421; 110)
+1095372: mip =     not found yet >=   3.110500000e+04        (423; 110)
+1103854: mip =     not found yet >=   3.110500000e+04        (425; 111)
+1111229: mip =     not found yet >=   3.110500000e+04        (429; 112)
+1117453: mip =     not found yet >=   3.110500000e+04        (429; 113)
Time used: 799.5 secs.  Memory used: 14.2 Mb.
+1126595: mip =     not found yet >=   3.110500000e+04        (431; 113)
+1134425: mip =     not found yet >=   3.110600000e+04        (432; 114)
+1140939: mip =     not found yet >=   3.110600000e+04        (433; 116)
+1154154: mip =     not found yet >=   3.110600000e+04        (433; 116)
+1161814: mip =     not found yet >=   3.110600000e+04        (435; 117)
+1172066: mip =     not found yet >=   3.110600000e+04        (436; 119)
+1183792: mip =     not found yet >=   3.110600000e+04        (436; 120)
+1191975: mip =     not found yet >=   3.110600000e+04        (438; 120)
Time used: 860.5 secs.  Memory used: 14.3 Mb.
+1199165: mip =     not found yet >=   3.110600000e+04        (440; 122)
+1208330: mip =     not found yet >=   3.110600000e+04        (442; 122)
+1217272: mip =     not found yet >=   3.110600000e+04        (444; 123)
+1225662: mip =     not found yet >=   3.110600000e+04        (446; 124)
+1234594: mip =     not found yet >=   3.110600000e+04        (448; 125)
+1243333: mip =     not found yet >=   3.110600000e+04        (449; 127)
+1250690: mip =     not found yet >=   3.110600000e+04        (450; 128)
+1261130: mip =     not found yet >=   3.110700000e+04        (453; 129)
+1268795: mip =     not found yet >=   3.110700000e+04        (454; 132)
+1279053: mip =     not found yet >=   3.110700000e+04        (455; 133)
Time used: 921.3 secs.  Memory used: 14.6 Mb.
+1287096: mip =     not found yet >=   3.110700000e+04        (457; 133)
+1295996: mip =     not found yet >=   3.110700000e+04        (458; 135)
+1305864: mip =     not found yet >=   3.110700000e+04        (459; 136)
+1315328: mip =     not found yet >=   3.110700000e+04        (460; 137)
+1322813: mip =     not found yet >=   3.110700000e+04        (462; 138)
+1330852: mip =     not found yet >=   3.110700000e+04        (464; 139)
+1340380: mip =     not found yet >=   3.110700000e+04        (465; 140)
#1353097: obj =   7.866118919e+04 inf =   0.000e+00 (577) 120 82%
#1353347: obj =   7.872518919e+04 inf =   0.000e+00 (691) 3 99%
+1353347: mip =     not found yet >=   3.110700000e+04        (465; 141)
+1362514: mip =     not found yet >=   3.110700000e+04        (467; 141)
Time used: 982.0 secs.  Memory used: 14.8 Mb.
+1372161: mip =     not found yet >=   3.110700000e+04        (469; 142)
+1379695: mip =     not found yet >=   3.110800000e+04        (471; 144)
+1386925: mip =     not found yet >=   3.110800000e+04        (473; 145)
+1395595: mip =     not found yet >=   3.110800000e+04        (475; 145)
+1407760: mip =     not found yet >=   3.110800000e+04        (474; 149)
+1413963: mip =     not found yet >=   3.110800000e+04        (474; 149)
+1421994: mip =     not found yet >=   3.110800000e+04        (475; 152)
+1432942: mip =     not found yet >=   3.110800000e+04        (476; 153)
+1439895: mip =     not found yet >=   3.110800000e+04        (477; 153)
Time used: 1043.6 secs.  Memory used: 15.0 Mb.
+1448537: mip =     not found yet >=   3.110800000e+04        (478; 154)
+1456486: mip =     not found yet >=   3.110800000e+04        (479; 156)
+1463797: mip =     not found yet >=   3.110800000e+04        (481; 157)
+1472259: mip =     not found yet >=   3.110800000e+04        (483; 158)
+1480799: mip =     not found yet >=   3.110800000e+04        (484; 160)
+1488855: mip =     not found yet >=   3.110800000e+04        (486; 161)
+1497071: mip =     not found yet >=   3.110800000e+04        (486; 162)
+1504788: mip =     not found yet >=   3.110800000e+04        (487; 163)
+1514311: mip =     not found yet >=   3.110800000e+04        (489; 164)
+1521489: mip =     not found yet >=   3.110800000e+04        (491; 164)
+1529851: mip =     not found yet >=   3.110800000e+04        (491; 166)
Time used: 1105.4 secs.  Memory used: 15.3 Mb.
+1537985: mip =     not found yet >=   3.110800000e+04        (492; 167)
+1548082: mip =     not found yet >=   3.110900000e+04        (493; 170)
#1565450: obj =   6.426339886e+04 inf =   0.000e+00 (1874) 118 88%
#1566685: obj =   6.512173845e+04 inf =   1.421e-12 (1675) 12 99%
+1566685: mip =     not found yet >=   3.110900000e+04        (491; 174)
+1575461: mip =     not found yet >=   3.110900000e+04        (493; 175)
+1584126: mip =     not found yet >=   3.110900000e+04        (495; 176)
+1592896: mip =     not found yet >=   3.110900000e+04        (498; 177)
+1602656: mip =     not found yet >=   3.110900000e+04        (498; 178)
+1610689: mip =     not found yet >=   3.110900000e+04        (499; 179)
Time used: 1165.4 secs.  Memory used: 15.5 Mb.
+1618824: mip =     not found yet >=   3.110900000e+04        (501; 180)
+1627852: mip =     not found yet >=   3.110900000e+04        (503; 181)
+1637342: mip =     not found yet >=   3.110900000e+04        (506; 182)
+1646300: mip =     not found yet >=   3.111000000e+04        (508; 183)
+1654823: mip =     not found yet >=   3.111000000e+04        (510; 184)
+1669730: mip =     not found yet >=   3.111000000e+04        (509; 187)
+1680129: mip =     not found yet >=   3.111000000e+04        (508; 189)
+1689667: mip =     not found yet >=   3.111000000e+04        (507; 191)
Time used: 1227.0 secs.  Memory used: 15.7 Mb.
+1698504: mip =     not found yet >=   3.111000000e+04        (509; 192)
+1708760: mip =     not found yet >=   3.111000000e+04        (510; 194)
+1718744: mip =     not found yet >=   3.111000000e+04        (512; 195)
+1727082: mip =     not found yet >=   3.111000000e+04        (513; 197)
+1734160: mip =     not found yet >=   3.111000000e+04        (515; 197)
+1743486: mip =     not found yet >=   3.111100000e+04        (516; 199)
+1751743: mip =     not found yet >=   3.111100000e+04        (518; 199)
+1760656: mip =     not found yet >=   3.111100000e+04        (516; 203)
+1769204: mip =     not found yet >=   3.111100000e+04        (515; 204)
+1778808: mip =     not found yet >=   3.111100000e+04        (515; 207)
Time used: 1287.5 secs.  Memory used: 15.9 Mb.
+1787622: mip =     not found yet >=   3.111100000e+04        (517; 208)
+1794928: mip =     not found yet >=   3.111100000e+04        (518; 209)
+1803735: mip =     not found yet >=   3.111100000e+04        (517; 212)
+1813240: mip =     not found yet >=   3.111100000e+04        (518; 213)
+1820847: mip =     not found yet >=   3.111200000e+04        (520; 214)
+1831791: mip =     not found yet >=   3.111200000e+04        (520; 216)
+1840031: mip =     not found yet >=   3.111200000e+04        (521; 217)
+1848010: mip =     not found yet >=   3.111200000e+04        (523; 217)
+1854988: mip =     not found yet >=   3.111200000e+04        (523; 220)
+1863115: mip =     not found yet >=   3.111200000e+04        (523; 221)
Time used: 1348.5 secs.  Memory used: 16.3 Mb.
+1872563: mip =     not found yet >=   3.111200000e+04        (525; 222)
+1882224: mip =     not found yet >=   3.111200000e+04        (528; 223)
+1891048: mip =     not found yet >=   3.111200000e+04        (529; 223)
+1898650: mip =     not found yet >=   3.111200000e+04        (530; 225)
+1906902: mip =     not found yet >=   3.111200000e+04        (532; 226)
+1914569: mip =     not found yet >=   3.111300000e+04        (534; 227)
+1921252: mip =     not found yet >=   3.111300000e+04        (534; 229)
+1928761: mip =     not found yet >=   3.111300000e+04        (534; 230)
+1936367: mip =     not found yet >=   3.111300000e+04        (533; 232)
+1945625: mip =     not found yet >=   3.111300000e+04        (533; 234)
Time used: 1408.5 secs.  Memory used: 16.5 Mb.
+1955588: mip =     not found yet >=   3.111300000e+04        (534; 235)
+1964155: mip =     not found yet >=   3.111300000e+04        (535; 237)
+1974799: mip =     not found yet >=   3.111300000e+04        (537; 238)
+1985504: mip =     not found yet >=   3.111300000e+04        (540; 239)
+1995159: mip =     not found yet >=   3.111300000e+04        (542; 241)
+2004073: mip =     not found yet >=   3.111300000e+04        (545; 241)
+2012696: mip =     not found yet >=   3.111300000e+04        (547; 243)
+2020104: mip =     not found yet >=   3.111300000e+04        (551; 244)
+2027406: mip =     not found yet >=   3.111400000e+04        (552; 246)
Time used: 1468.8 secs.  Memory used: 16.8 Mb.
+2035099: mip =     not found yet >=   3.111400000e+04        (554; 247)
+2042171: mip =     not found yet >=   3.111400000e+04        (557; 249)
+2052468: mip =     not found yet >=   3.111400000e+04        (557; 250)
+2059585: mip =     not found yet >=   3.111400000e+04        (558; 250)
+2067955: mip =     not found yet >=   3.111400000e+04        (560; 251)
+2078157: mip =     not found yet >=   3.111400000e+04        (562; 252)
+2086285: mip =     not found yet >=   3.111400000e+04        (563; 253)
+2094586: mip =     not found yet >=   3.111400000e+04        (564; 255)
+2102747: mip =     not found yet >=   3.111500000e+04        (566; 257)
+2111843: mip =     not found yet >=   3.111500000e+04        (566; 260)
Time used: 1531.4 secs.  Memory used: 17.0 Mb.
+2122020: mip =     not found yet >=   3.111500000e+04        (567; 262)
+2130810: mip =     not found yet >=   3.111500000e+04        (568; 263)
+2139261: mip =     not found yet >=   3.111500000e+04        (570; 264)
+2148267: mip =     not found yet >=   3.111500000e+04        (571; 266)
+2158721: mip =     not found yet >=   3.111600000e+04        (571; 267)
+2166751: mip =     not found yet >=   3.111600000e+04        (572; 267)
+2173729: mip =     not found yet >=   3.111600000e+04        (572; 269)
+2183300: mip =     not found yet >=   3.111600000e+04        (572; 273)
+2190323: mip =     not found yet >=   3.111600000e+04        (573; 274)
+2197866: mip =     not found yet >=   3.111600000e+04        (575; 275)
Time used: 1591.7 secs.  Memory used: 17.3 Mb.
+2205143: mip =     not found yet >=   3.111600000e+04        (575; 278)
+2214721: mip =     not found yet >=   3.111700000e+04        (577; 278)
+2221903: mip =     not found yet >=   3.111700000e+04        (578; 280)
+2231505: mip =     not found yet >=   3.111700000e+04        (579; 281)
+2242033: mip =     not found yet >=   3.111700000e+04        (579; 283)
+2252255: mip =     not found yet >=   3.111700000e+04        (581; 284)
+2261272: mip =     not found yet >=   3.111700000e+04        (581; 286)
+2271406: mip =     not found yet >=   3.111700000e+04        (582; 288)
+2280800: mip =     not found yet >=   3.111700000e+04        (584; 289)
Time used: 1652.5 secs.  Memory used: 17.6 Mb.
+2288834: mip =     not found yet >=   3.111700000e+04        (585; 291)
+2296181: mip =     not found yet >=   3.111700000e+04        (586; 292)
+2304262: mip =     not found yet >=   3.111800000e+04        (588; 293)
+2315443: mip =     not found yet >=   3.111800000e+04        (590; 294)
+2323724: mip =     not found yet >=   3.111800000e+04        (591; 295)
+2331327: mip =     not found yet >=   3.111800000e+04        (592; 296)
+2349672: mip =     not found yet >=   3.111800000e+04        (593; 298)
+2358979: mip =     not found yet >=   3.111800000e+04        (593; 300)
+2366002: mip =     not found yet >=   3.111800000e+04        (594; 302)
Time used: 1714.0 secs.  Memory used: 17.8 Mb.
+2376137: mip =     not found yet >=   3.111800000e+04        (596; 302)
+2384117: mip =     not found yet >=   3.111800000e+04        (597; 304)
+2394277: mip =     not found yet >=   3.111900000e+04        (599; 306)
+2407909: mip =     not found yet >=   3.111900000e+04        (600; 307)
+2417754: mip =     not found yet >=   3.111900000e+04        (601; 308)
+2427838: mip =     not found yet >=   3.111900000e+04        (603; 308)
+2438080: mip =     not found yet >=   3.111900000e+04        (605; 309)
+2447100: mip =     not found yet >=   3.111900000e+04        (606; 310)
Time used: 1774.2 secs.  Memory used: 18.0 Mb.
+2455509: mip =     not found yet >=   3.111900000e+04        (607; 311)
+2463175: mip =     not found yet >=   3.111900000e+04        (609; 312)
+2472090: mip =     not found yet >=   3.111900000e+04        (610; 314)
